11
-1 3 38 17 19 49 70 78 92 13 4 
38 -1 1 55 71 49 66 56 98 1 40 
20 35 -1 5 96 39 60 13 59 98 7 
4 19 32 -1 80 30 93 37 73 81 39 
9 53 18 8 -1 15 57 100 98 28 32 
77 95 11 36 73 -1 71 31 98 30 48 
79 41 88 7 81 48 -1 100 74 32 6 
31 47 18 26 94 40 2 -1 69 12 83 
63 88 72 72 38 36 27 12 -1 20 3 
87 25 38 40 53 12 12 46 45 -1 70 
100 99 4 85 77 15 42 28 12 38 -1 
